423 5
10 10 10 10 10 

0 0 0 0 0 0 4 2 14 26 38 
0 0 0 0 0 0 5 3 4 5 6 12 
7 0 0 1 0 0 2 11 10 
1 0 0 4 0 0 1 8 
9 0 0 2 0 0 1 7 
1 0 0 3 0 0 1 7 
5 0 0 2 0 0 2 9 312 
6 0 0 1 0 0 1 9 
9 0 0 2 0 0 1 13 
5 0 0 2 0 0 1 13 
3 0 0 7 0 0 1 13 
2 0 0 1 0 0 1 13 
0 0 0 0 0 0 1 50 
0 0 0 0 0 0 3 15 16 20 
4 0 0 0 1 0 3 19 18 17 
1 0 0 0 5 0 1 17 
4 0 0 0 1 0 4 24 23 22 21 
1 0 0 0 3 0 4 24 23 22 21 
10 0 0 0 2 0 2 23 22 
6 0 0 0 2 0 1 21 
2 0 0 0 3 0 1 25 
2 0 0 0 2 0 2 25 414 
5 0 0 0 4 0 1 25 
2 0 0 0 2 0 1 25 
0 0 0 0 0 0 1 50 
0 0 0 0 0 0 2 27 28 
9 1 0 0 0 0 3 36 31 29 
5 4 0 0 0 0 3 34 32 30 
10 4 0 0 0 0 3 35 34 33 
6 2 0 0 0 0 2 35 33 
7 2 0 0 0 0 2 34 33 
5 4 0 0 0 0 1 33 
10 3 0 0 0 0 1 37 
2 1 0 0 0 0 1 37 
5 3 0 0 0 0 2 37 132 
10 1 0 0 0 0 1 37 
0 0 0 0 0 0 1 50 
0 0 0 0 0 0 4 39 40 42 48 
1 0 0 0 1 0 3 47 43 41 
10 0 0 0 3 0 3 45 44 43 
7 0 0 0 3 0 2 46 44 
1 0 0 0 4 0 2 45 43 
1 0 0 0 4 0 1 49 
8 0 0 0 2 0 1 49 
7 0 0 0 2 0 1 49 
2 0 0 0 1 0 2 49 211 
2 0 0 0 2 0 1 49 
5 0 0 0 3 0 1 49 
0 0 0 0 0 0 1 50 
0 0 0 0 0 0 4 51 93 135 147 
0 0 0 0 0 0 3 52 53 57 
6 1 1 0 1 1 4 59 56 55 54 
3 2 3 0 3 3 4 66 65 61 58 
9 1 1 0 4 2 6 78 66 65 63 62 61 
10 3 2 0 2 1 5 73 66 62 61 60 
3 2 2 0 1 2 3 66 61 58 
2 1 2 0 5 3 3 63 61 59 
9 1 3 0 3 3 4 73 67 64 60 
5 3 2 0 3 2 7 78 76 75 73 72 67 66 
5 3 3 0 3 1 5 78 76 74 69 63 
7 1 2 0 3 2 5 76 74 68 64 416 
10 2 1 0 3 1 7 75 74 72 71 69 68 67 
4 1 4 0 1 3 6 79 75 72 71 70 68 
4 2 1 0 2 2 6 79 75 72 71 70 69 
8 3 2 0 3 3 5 77 74 73 71 67 
3 4 2 0 4 4 5 74 71 70 69 68 
1 3 4 0 3 2 3 82 79 70 
4 1 2 0 4 2 3 84 80 77 
6 4 3 0 1 6 2 80 77 
2 4 3 0 2 1 3 84 83 81 
4 5 3 0 2 5 3 83 82 81 
1 4 3 0 2 5 3 83 82 81 
9 2 3 0 1 3 3 83 82 81 
1 3 4 0 1 2 2 82 80 
6 2 3 0 3 2 2 84 80 
4 4 4 0 2 1 2 82 80 
4 1 1 0 2 2 4 86 85 83 82 
8 2 2 0 4 2 4 86 85 83 82 
5 5 2 0 2 2 1 80 
1 3 2 0 1 3 2 91 81 
5 2 1 0 3 2 3 90 86 85 
9 3 1 0 3 5 4 90 89 88 87 
7 2 6 0 2 3 4 91 90 88 87 
7 1 3 0 2 4 1 85 
5 1 4 0 5 2 3 89 88 87 
8 4 1 0 3 2 3 89 88 87 
5 2 3 0 2 1 1 92 
6 3 1 0 2 1 1 92 
9 3 3 0 4 4 1 92 
2 3 4 0 2 1 1 92 
9 3 3 0 1 4 1 92 
0 0 0 0 0 0 1 423 
0 0 0 0 0 0 5 94 97 99 100 104 
4 1 0 1 1 1 3 102 98 95 
4 2 0 1 1 2 2 106 96 
1 2 0 1 3 5 7 133 120 111 109 107 103 101 
2 4 0 2 3 2 6 133 120 111 109 107 101 
9 2 0 2 2 4 9 133 122 120 116 114 110 109 108 107 
3 1 0 3 4 2 8 122 121 119 118 114 113 105 102 
1 1 0 3 1 8 5 122 113 108 107 103 
6 2 0 4 1 4 8 122 121 119 118 116 114 113 105 
1 1 0 4 1 1 4 116 111 109 106 
2 3 0 2 1 1 4 121 119 118 112 
1 2 0 5 2 2 4 120 118 113 109 
5 1 0 2 1 5 4 127 125 123 112 
6 2 0 2 2 1 3 123 120 115 
10 2 0 3 4 3 2 121 112 
10 2 0 4 2 4 2 127 111 
5 2 0 2 5 1 3 127 123 115 
2 4 0 2 3 2 3 126 119 118 
1 4 0 2 3 2 3 132 125 115 
4 4 0 1 3 3 2 132 115 
3 1 0 2 3 1 2 125 115 
2 4 0 1 2 2 2 132 115 
6 1 0 1 4 1 1 117 
3 4 0 3 4 3 4 132 131 130 125 
10 2 0 3 4 2 3 131 126 124 
8 4 0 3 2 2 3 132 125 124 
8 4 0 3 3 2 3 130 129 123 
5 3 0 5 3 2 3 126 125 124 
3 3 0 2 4 1 3 129 127 126 
1 2 0 5 4 1 2 129 123 
7 3 0 2 1 4 3 132 131 128 
1 1 0 2 1 2 2 130 129 
9 3 0 2 1 5 2 129 128 
3 1 0 2 2 1 1 128 
6 3 0 1 3 2 1 130 
8 3 0 2 2 3 2 134 379 
5 4 0 4 3 4 1 134 
9 5 0 4 3 1 1 134 
1 5 0 2 2 4 1 134 
2 1 0 2 3 2 1 134 
2 1 0 3 3 2 1 134 
0 0 0 0 0 0 1 423 
0 0 0 0 0 0 4 136 139 140 141 
1 0 0 0 1 0 4 145 138 137 343 
9 0 0 0 5 0 3 144 143 142 
1 0 0 0 3 0 2 144 142 
3 0 0 0 3 0 2 143 142 
9 0 0 0 4 0 2 143 142 
1 0 0 0 3 0 1 142 
10 0 0 0 1 0 1 146 
10 0 0 0 1 0 1 146 
5 0 0 0 3 0 1 146 
5 0 0 0 1 0 1 146 
0 0 0 0 0 0 4 189 221 253 285 
0 0 0 0 0 0 5 148 152 153 154 158 
2 1 1 1 0 1 3 156 151 149 
10 1 2 4 0 3 2 164 150 
1 2 2 5 0 4 8 187 175 168 163 162 161 157 155 
6 1 3 2 0 2 10 187 175 173 170 167 166 165 163 161 160 
9 1 4 2 0 2 6 187 175 163 162 161 155 
6 1 4 3 0 1 7 176 173 172 168 167 159 156 
8 1 2 3 0 1 4 168 161 160 157 
7 4 3 1 0 3 7 176 174 173 172 170 167 159 
2 2 3 2 0 1 5 170 164 163 162 379 
5 3 3 2 0 2 4 176 174 172 166 
2 4 3 1 0 6 4 178 175 174 163 
5 1 3 3 0 1 3 181 180 166 
3 2 1 2 0 3 2 181 162 
4 4 2 3 0 2 3 186 176 169 
8 2 2 1 0 1 3 186 180 169 
9 4 2 2 0 2 3 186 181 169 
3 3 3 1 0 3 3 179 178 175 
10 4 4 5 0 5 2 174 172 
6 2 3 2 0 2 2 186 169 
3 3 3 2 0 3 2 186 169 
9 4 3 1 0 5 2 180 171 
1 2 1 4 0 3 1 171 
3 1 2 2 0 1 5 186 185 184 183 180 
2 1 5 4 0 1 3 185 179 177 
5 3 4 3 0 2 3 183 182 178 
9 1 1 2 0 1 3 183 182 178 
2 5 4 2 0 4 2 180 177 
5 3 1 2 0 2 2 180 177 
8 3 2 3 0 4 3 183 182 181 
1 1 1 3 0 3 2 184 183 
7 3 1 2 0 3 2 186 185 
1 2 3 1 0 3 1 182 
5 1 2 3 0 1 1 182 
4 3 2 3 0 3 1 184 
8 2 3 5 0 2 1 188 
8 2 3 3 0 5 1 188 
10 5 3 1 0 2 1 188 
8 6 2 1 0 3 1 188 
2 3 2 4 0 3 1 188 
6 3 2 4 0 1 1 188 
0 0 0 0 0 0 1 423 
0 0 0 0 0 0 6 190 191 192 193 194 195 
8 1 1 1 0 0 3 198 197 196 
10 3 2 2 0 0 3 207 198 196 
8 1 1 3 0 0 2 198 196 
10 2 3 2 0 0 3 201 200 197 
10 2 2 2 0 0 3 201 200 197 
6 6 3 2 0 0 2 197 196 
1 6 3 3 0 0 5 205 203 202 200 199 
4 4 2 2 0 0 5 207 205 203 202 199 
5 2 2 2 0 0 2 204 201 
4 2 4 1 0 0 3 209 208 206 
6 1 2 2 0 0 3 209 208 206 
1 2 4 3 0 0 3 209 208 206 
1 2 1 3 0 0 2 209 206 
5 5 3 3 0 0 2 209 206 
2 1 5 2 0 0 2 209 206 
1 1 1 4 0 0 2 206 239 
3 1 4 4 0 0 3 216 211 210 
3 4 3 2 0 0 2 211 208 
3 3 2 2 0 0 4 219 216 214 212 
2 3 4 2 0 0 3 216 212 211 
6 3 4 6 0 0 2 219 212 
10 3 2 3 0 0 2 218 214 
3 2 2 1 0 0 1 213 
10 3 3 5 0 0 2 218 217 
3 2 2 2 0 0 1 215 
7 2 3 2 0 0 1 217 
3 3 2 3 0 0 1 218 
5 3 1 1 0 0 1 220 
7 1 3 1 0 0 1 220 
6 1 1 4 0 0 1 220 
0 0 0 0 0 0 1 423 
0 0 0 0 0 0 7 222 223 224 225 226 229 265 
4 1 0 0 1 1 5 239 237 230 228 227 
8 1 0 0 2 1 4 237 236 230 227 
5 1 0 0 1 2 3 239 230 227 
10 1 0 0 1 3 3 239 228 227 
5 2 0 0 1 3 2 239 228 
4 4 0 0 2 1 5 240 235 234 233 232 
6 3 0 0 2 4 5 241 240 236 235 234 
2 2 0 0 4 4 3 241 240 234 
5 3 0 0 1 3 1 231 
9 4 0 0 2 3 3 241 240 238 
3 3 0 0 4 1 2 241 238 
8 2 0 0 2 1 2 241 238 
8 3 0 0 6 1 1 238 
8 2 0 0 1 1 1 238 
8 3 0 0 2 2 1 238 
10 1 0 0 3 2 1 238 
10 2 0 0 3 1 5 251 250 247 243 242 
5 2 0 0 1 3 2 247 241 
10 4 0 0 3 2 2 250 242 
9 2 0 0 2 5 4 251 250 249 246 
5 5 0 0 3 3 2 249 245 
3 3 0 0 5 2 1 244 
8 3 0 0 4 5 2 249 248 
1 1 0 0 2 4 1 246 
7 2 0 0 3 3 1 248 
1 3 0 0 2 1 1 249 
4 3 0 0 4 3 1 252 
8 1 0 0 3 4 1 252 
2 4 0 0 1 5 1 252 
8 4 0 0 4 1 1 252 
0 0 0 0 0 0 1 423 
0 0 0 0 0 0 6 254 255 256 257 258 269 
5 0 1 0 1 1 4 270 261 260 259 
10 0 2 0 2 2 5 270 267 265 260 259 
4 0 1 0 5 2 4 265 260 259 294 
7 0 2 0 4 4 3 271 261 259 
3 0 3 0 2 2 4 273 271 266 261 
4 0 1 0 4 2 3 266 263 262 
2 0 5 0 4 1 2 271 264 
9 0 5 0 2 1 2 267 265 
2 0 5 0 2 4 2 274 268 
2 0 2 0 2 2 2 274 268 
2 0 3 0 1 3 2 274 268 
1 0 2 0 1 2 1 268 
6 0 3 0 2 3 1 268 
9 0 2 0 2 4 1 268 
7 0 2 0 1 3 6 283 282 279 278 275 272 
1 0 4 0 3 1 6 283 282 279 278 275 272 
6 0 3 0 2 3 4 282 278 277 275 
4 0 4 0 3 2 2 282 272 
7 0 1 0 3 3 2 280 276 
5 0 2 0 1 2 1 274 
1 0 4 0 4 5 3 283 282 280 
9 0 1 0 2 3 2 281 280 
8 0 2 0 1 2 1 277 
8 0 2 0 4 1 1 281 
6 0 4 0 3 3 1 281 
5 0 1 0 4 1 1 280 
8 0 4 0 3 5 1 284 
10 0 1 0 2 2 1 284 
5 0 1 0 3 3 1 284 
4 0 2 0 2 3 1 284 
0 0 0 0 0 0 1 423 
0 0 0 0 0 0 4 286 287 288 295 
4 0 0 1 0 0 5 294 293 292 290 289 
9 0 0 4 0 0 3 293 291 290 
7 0 0 5 0 0 3 292 290 310 
3 0 0 2 0 0 1 291 
7 0 0 2 0 0 1 296 
5 0 0 1 0 0 1 296 
10 0 0 2 0 0 1 296 
6 0 0 3 0 0 1 296 
9 0 0 4 0 0 1 296 
6 0 0 1 0 0 1 296 
0 0 0 0 0 0 4 297 319 341 363 
0 0 0 0 0 0 5 298 300 301 302 306 
9 0 0 0 1 1 2 307 299 
1 0 0 0 2 2 4 317 310 308 303 
6 0 0 0 1 2 3 316 305 304 
2 0 0 0 2 2 3 309 308 307 
8 0 0 0 2 4 3 307 303 409 
4 0 0 0 5 3 4 315 314 311 309 
4 0 0 0 5 3 4 317 314 313 308 
10 0 0 0 2 2 4 314 313 310 308 
9 0 0 0 2 2 3 317 310 309 
7 0 0 0 3 3 3 314 312 310 
10 0 0 0 2 4 3 315 312 311 
2 0 0 0 2 3 3 316 313 312 
5 0 0 0 6 2 1 311 
2 0 0 0 1 3 1 318 
6 0 0 0 2 3 1 318 
1 0 0 0 3 2 1 318 
5 0 0 0 2 3 1 318 
2 0 0 0 2 1 1 318 
5 0 0 0 4 2 1 318 
3 0 0 0 1 3 1 318 
0 0 0 0 0 0 1 423 
0 0 0 0 0 0 12 320 322 323 326 327 333 334 335 336 337 338 339 
9 1 0 0 1 0 2 332 321 
8 2 0 0 2 0 2 329 324 
10 4 0 0 1 0 2 331 329 
7 2 0 0 2 0 2 329 328 
5 6 0 0 2 0 1 325 
7 2 0 0 1 0 1 328 
7 2 0 0 3 0 1 330 
5 3 0 0 2 0 1 328 
3 1 0 0 7 0 1 340 
9 3 0 0 4 0 1 340 
8 2 0 0 3 0 1 340 
5 1 0 0 2 0 1 340 
6 1 0 0 4 0 1 340 
9 2 0 0 2 0 1 340 
6 1 0 0 4 0 1 340 
2 3 0 0 2 0 1 340 
2 2 0 0 2 0 1 340 
8 5 0 0 4 0 2 340 414 
8 2 0 0 1 0 1 340 
7 5 0 0 1 0 1 340 
0 0 0 0 0 0 1 423 
0 0 0 0 0 0 9 342 343 344 345 346 349 350 352 355 
7 0 0 1 0 1 4 361 360 357 347 
9 0 0 1 0 5 4 360 359 354 351 
5 0 0 5 0 3 4 360 359 351 348 
8 0 0 4 0 2 3 360 359 348 
4 0 0 1 0 2 3 360 357 351 
2 0 0 2 0 2 2 359 351 
4 0 0 2 0 3 3 358 357 353 
4 0 0 3 0 3 3 359 358 354 
6 0 0 2 0 2 2 354 353 
8 0 0 2 0 3 2 358 353 
4 0 0 3 0 3 1 353 
1 0 0 4 0 3 1 356 
10 0 0 3 0 2 1 357 
7 0 0 3 0 2 1 356 
8 0 0 2 0 1 1 362 
3 0 0 2 0 4 1 362 
3 0 0 2 0 1 1 362 
8 0 0 4 0 3 1 362 
6 0 0 1 0 2 1 362 
4 0 0 3 0 3 1 362 
0 0 0 0 0 0 1 423 
0 0 0 0 0 0 5 364 365 366 368 373 
7 0 0 0 1 0 2 372 370 
6 0 0 0 3 0 2 370 369 
10 0 0 0 2 0 1 367 
3 0 0 0 4 0 1 371 
6 0 0 0 2 0 1 369 
10 0 0 0 3 0 1 374 
7 0 0 0 2 0 1 374 
4 0 0 0 3 0 1 374 
7 0 0 0 2 0 1 374 
4 0 0 0 3 0 1 374 
0 0 0 0 0 0 4 375 387 399 411 
0 0 0 0 0 0 4 376 377 378 379 
6 0 0 0 0 1 3 382 381 380 
6 0 0 0 0 3 3 382 381 380 
5 0 0 0 0 2 2 381 380 
3 0 0 0 0 4 2 385 382 
5 0 0 0 0 3 2 385 384 
10 0 0 0 0 6 2 384 383 
9 0 0 0 0 1 1 383 
6 0 0 0 0 1 1 386 
4 0 0 0 0 2 1 386 
7 0 0 0 0 2 1 386 
0 0 0 0 0 0 1 423 
0 0 0 0 0 0 5 388 389 394 396 397 
8 0 0 0 1 0 3 393 392 391 
10 0 0 0 4 0 1 390 
5 0 0 0 3 0 1 395 
9 0 0 0 1 0 1 395 
7 0 0 0 1 0 1 395 
1 0 0 0 4 0 1 395 
5 0 0 0 2 0 1 395 
3 0 0 0 3 0 1 398 
1 0 0 0 2 0 1 398 
6 0 0 0 4 0 1 398 
0 0 0 0 0 0 1 423 
0 0 0 0 0 0 5 400 401 402 406 409 
4 0 0 0 1 0 3 405 404 403 
5 0 0 0 1 0 2 404 403 
2 0 0 0 2 0 2 407 404 
4 0 0 0 1 0 2 408 407 
1 0 0 0 4 0 1 408 
2 0 0 0 3 0 1 407 
9 0 0 0 3 0 1 407 
2 0 0 0 2 0 1 410 
9 0 0 0 3 0 1 410 
1 0 0 0 5 0 1 410 
0 0 0 0 0 0 1 423 
0 0 0 0 0 0 4 412 413 414 416 
3 0 0 0 1 0 5 421 420 419 417 415 
4 0 0 0 2 0 2 419 417 
6 0 0 0 2 0 1 415 
8 0 0 0 2 0 1 418 
4 0 0 0 3 0 1 417 
3 0 0 0 3 0 1 422 
2 0 0 0 3 0 1 422 
6 0 0 0 1 0 1 422 
5 0 0 0 4 0 1 422 
10 0 0 0 4 0 1 422 
0 0 0 0 0 0 1 423 
0 0 0 0 0 0 0 
